c turning on binary mode checking
c parsing input formula with 259840 variables and 1039929 clauses
c finished parsing, read 2967161 bytes from proof file
c detected empty clause; start verification via backward checking
c 1758 of 1039929 clauses in core                            
c 562 of 118058 lemmas in core using 14222 resolution steps
c 0 RAT lemmas in core; 48 redundant literals in core lemmas
s VERIFIED
c verification time: 1.260 seconds
